language Essence 1.3

letting class be
        function(1 --> 4, 2 --> 8, 3 --> 6, 4 --> 4, 5 --> 6, 6 --> 1, 7 --> 1, 8 --> 4, 9 --> 1, 10 --> 3, 11 --> 8,
                 12 --> 3, 13 --> 2, 14 --> 5, 15 --> 6, 16 --> 6, 17 --> 5, 18 --> 5, 19 --> 2, 20 --> 6, 21 --> 8,
                 22 --> 8, 23 --> 2, 24 --> 2, 25 --> 3, 26 --> 6, 27 --> 3, 28 --> 7)
letting deck_length be 23
letting deck_width be 44
letting length be
        function(1 --> 1, 2 --> 11, 3 --> 11, 4 --> 23, 5 --> 1, 6 --> 10, 7 --> 8, 8 --> 17, 9 --> 16, 10 --> 8,
                 11 --> 17, 12 --> 1, 13 --> 3, 14 --> 23, 15 --> 17, 16 --> 23, 17 --> 9, 18 --> 3, 19 --> 1, 20 --> 1,
                 21 --> 20, 22 --> 17, 23 --> 1, 24 --> 1, 25 --> 1, 26 --> 1, 27 --> 8, 28 --> 20)
letting n_classes be 8
letting n_containers be 28
letting separation be function({1, 2} --> 13, {1, 3} --> 22, {2, 3} --> 13)
letting width be
        function(1 --> 1, 2 --> 1, 3 --> 1, 4 --> 11, 5 --> 1, 6 --> 1, 7 --> 1, 8 --> 1, 9 --> 1, 10 --> 1, 11 --> 1,
                 12 --> 1, 13 --> 1, 14 --> 6, 15 --> 2, 16 --> 8, 17 --> 1, 18 --> 2, 19 --> 1, 20 --> 1, 21 --> 1,
                 22 --> 1, 23 --> 1, 24 --> 1, 25 --> 1, 26 --> 1, 27 --> 1, 28 --> 1)
